commons/LK_FILES/TIC01-20-20-3.tsp
NAME: TIC01-20-20-3
TYPE: TSP
COMMENT: TSP
DIMENSION: 7
EDGE_WEIGHT_TYPE: EXPLICIT
EDGE_WEIGHT_FORMAT: FULL_MATRIX
EDGE_WEIGHT_SECTION
0 152 289 406 265 152 112 
152 0 176 267 219 169 87 
289 176 0 345 429 293 268 
406 267 345 0 383 321 318 
265 219 429 383 0 236 401 
152 169 293 321 236 0 343 
112 87 268 318 401 343 0 
EOF
